NAME : netgen18-5-12
COMMENT : Generated using the function generateClusteredNetwork from the R-package netgen (Bossek,2015) - Number of clusters: 5
TYPE : TSP
DIMENSION : 18
EDGE_WEIGHT_TYPE : EUC_2D
NODE_COORD_SECTION
1 66.972482044 72.5558705091
2 67.6286162974 62.2194592234
3 62.3865610067 58.9973968749
4 26.8365844691 39.3182544225
5 38.434170966 46.7979788142
6 31.6013000265 59.4585211154
7 45.4908085214 19.042854976
8 43.3581852966 14.2488369365
9 38.3117875753 17.5280289109
10 90.0497621425 28.5192785764
11 83.4289663003 35.7646474377
12 88.8135119173 30.680135935
13 18.7026264333 92.7083477867
14 5.3868457544 93.5257793431
15 0.6937809837 90.3397333149
16 7.5717320692 97.7752393752
17 7.6754539082 94.8902637777
18 17.480798568 94.1293131876
EOF
